RT is False
Default write of storage_offers_DA.csv just to have a file (but constraint should be inactive)
Reading model...
...model read.
creating competitive generators file...
...competitive generators recorded.
Loading data...
.. day-ahead data with real-time VRE data read.
Compiling instance...
...instance created.
Creating Offer Mitigation (model will solve as dispatch if TRUE)...
NOTE: storage offers will not be mitigated
...storage offer mitigation file created
Converting model to MPEC...
...converted
NOTE: initial MIP solve with only storage competitive to get feasible solution
Solving...

Welcome to IBM(R) ILOG(R) CPLEX(R) Interactive Optimizer 12.9.0.0
  with Simplex, Mixed Integer & Barrier Optimizers
5725-A06 5725-A29 5724-Y48 5724-Y49 5724-Y54 5724-Y55 5655-Y21
Copyright IBM Corp. 1988, 2019.  All Rights Reserved.

Type 'help' for a list of available commands.
Type 'help' followed by a command name for more
information on commands.

CPLEX> Logfile 'cplex.log' closed.
Logfile 'C:\Users\llavin\Desktop\test826\logs\tmpx8ci6plv.cplex.log' open.
CPLEX> New value for parallel optimization mode: -1
CPLEX> New value for emphasis for MIP optimization: 1
CPLEX> New value for mixed integer optimality gap tolerance: 0.01
CPLEX> New value for integrality tolerance: 1e-12
CPLEX> New value for deterministic time limit in ticks: 75000
CPLEX> Problem 'C:\Users\llavin\Desktop\test826\logs\tmp166_rmh3.pyomo.lp' read.
Read time = 0.25 sec. (13.92 ticks)
CPLEX> Problem name         : C:\Users\llavin\Desktop\test826\logs\tmp166_rmh3.pyomo.lp
Objective sense      : Maximize
Variables            :   53809  [Nneg: 1,  Box: 22004,  Free: 4464,
                                 Binary: 27340]
Objective nonzeros   :    9089
Linear constraints   :  123253  [Less: 41346,  Greater: 59096,  Equal: 22811]
  Nonzeros           :  293156
  RHS nonzeros       :   67502

Variables            : Min LB: -5000.000        Max UB: 1000000.       
Objective nonzeros   : Min   : 0.008333333      Max   : 2500.000       
Linear constraints   :
  Nonzeros           : Min   : 0.008333333      Max   : 1000000.       
  RHS nonzeros       : Min   : 0.008333333      Max   : 1000000.       
CPLEX> CPXPARAM_Parallel                                -1
CPXPARAM_Emphasis_MIP                            1
CPXPARAM_DetTimeLimit                            75000
CPXPARAM_MIP_Tolerances_MIPGap                   0.01
CPXPARAM_MIP_Tolerances_Integrality              9.9999999999999998e-13
Tried aggregator 3 times.
MIP Presolve eliminated 88637 rows and 18995 columns.
MIP Presolve added 3359 rows and 0 columns.
MIP Presolve modified 24893 coefficients.
Aggregator did 12949 substitutions.
Reduced MIP has 25026 rows, 21317 columns, and 72586 nonzeros.
Reduced MIP has 8433 binaries, 0 generals, 0 SOSs, and 0 indicators.
Presolve time = 0.28 sec. (169.91 ticks)
Probing fixed 365 vars, tightened 3986 bounds.
Probing time = 0.06 sec. (19.27 ticks)
Tried aggregator 2 times.
MIP Presolve eliminated 826 rows and 734 columns.
MIP Presolve modified 3075 coefficients.
Aggregator did 32 substitutions.
Reduced MIP has 24168 rows, 20551 columns, and 70095 nonzeros.
Reduced MIP has 8067 binaries, 0 generals, 0 SOSs, and 0 indicators.
Presolve time = 0.11 sec. (90.11 ticks)
Probing fixed 0 vars, tightened 228 bounds.
Probing time = 0.16 sec. (23.67 ticks)
Clique table members: 45028.
MIP emphasis: integer feasibility.
MIP search method: dynamic search.
Parallel mode: opportunistic, using up to 32 threads.
Root relaxation solution time = 0.41 sec. (554.03 ticks)

        Nodes                                         Cuts/
   Node  Left     Objective  IInf  Best Integer    Best Bound    ItCnt     Gap

      0     0      -23.4052    42                    -23.4052     4065         
      0     0      -23.4052     1                 Flowcuts: 1     4066         
      0     2      -23.4052     1                    -23.4052     4066         
Elapsed time = 2.80 sec. (1510.20 ticks, tree = 0.02 MB, solutions = 1)
*     1     1      integral     0     -104.3954      -23.4052     4077   77.58%

Flow cuts applied:  1

Root node processing (before b&c):
  Real time             =    2.11 sec. (1468.75 ticks)
Parallel b&c, 32 threads:
  Real time             =    0.80 sec. (80.87 ticks)
  Sync time (average)   =    0.17 sec.
  Wait time (average)   =    0.00 sec.
                          ------------
Total (root+branch&cut) =    2.91 sec. (1549.63 ticks)

Solution pool: 1 solution saved.

MIP - Integer optimal solution:  Objective = -1.0439540949e+02
Solution time =    2.92 sec.  Iterations = 4088  Nodes = 5
Deterministic time = 1549.78 ticks  (530.38 ticks/sec)

CPLEX> Incumbent solution written to file 'C:\Users\llavin\Desktop\test826\logs\tmpqsit6ys2.cplex.sol'.
CPLEX> NOTE: no warmstart specified for MIP iteration, default behavior is true
NOTE: resolving with all competitive generators using storage-only solution to warmstart
Solving...

Welcome to IBM(R) ILOG(R) CPLEX(R) Interactive Optimizer 12.9.0.0
  with Simplex, Mixed Integer & Barrier Optimizers
5725-A06 5725-A29 5724-Y48 5724-Y49 5724-Y54 5724-Y55 5655-Y21
Copyright IBM Corp. 1988, 2019.  All Rights Reserved.

Type 'help' for a list of available commands.
Type 'help' followed by a command name for more
information on commands.

CPLEX> Logfile 'cplex.log' closed.
Logfile 'C:\Users\llavin\Desktop\test826\logs\tmpguixbyzq.cplex.log' open.
CPLEX> New value for parallel optimization mode: -1
CPLEX> New value for emphasis for MIP optimization: 1
CPLEX> New value for mixed integer optimality gap tolerance: 0.01
CPLEX> New value for integrality tolerance: 1e-12
CPLEX> New value for deterministic time limit in ticks: 75000
CPLEX> Problem 'C:\Users\llavin\Desktop\test826\logs\tmpix4muuaw.pyomo.lp' read.
Read time = 0.24 sec. (13.94 ticks)
CPLEX> MIP start file 'C:\Users\llavin\Desktop\test826\logs\tmpiu490bii.cplex.mst' read.
CPLEX> Problem name         : C:\Users\llavin\Desktop\test826\logs\tmpix4muuaw.pyomo.lp
Objective sense      : Maximize
Variables            :   54529  [Nneg: 1,  Box: 22724,  Free: 4464,
                                 Binary: 27340]
Objective nonzeros   :    9809
Linear constraints   :  123253  [Less: 41346,  Greater: 59096,  Equal: 22811]
  Nonzeros           :  293156
  RHS nonzeros       :   67502

Variables            : Min LB: -5000.000        Max UB: 1000000.       
Objective nonzeros   : Min   : 0.008333333      Max   : 2500.000       
Linear constraints   :
  Nonzeros           : Min   : 0.008333333      Max   : 1000000.       
  RHS nonzeros       : Min   : 0.008333333      Max   : 1000000.       
CPLEX> CPXPARAM_Parallel                                -1
CPXPARAM_Emphasis_MIP                            1
CPXPARAM_DetTimeLimit                            75000
CPXPARAM_MIP_Tolerances_MIPGap                   0.01
CPXPARAM_MIP_Tolerances_Integrality              9.9999999999999998e-13
Warning:  No solution found from 1 MIP starts.
Retaining values of one MIP start for possible repair.
Tried aggregator 3 times.
MIP Presolve eliminated 88637 rows and 19715 columns.
MIP Presolve added 3359 rows and 0 columns.
MIP Presolve modified 24893 coefficients.
Aggregator did 12949 substitutions.
Reduced MIP has 25026 rows, 21317 columns, and 72586 nonzeros.
Reduced MIP has 8433 binaries, 0 generals, 0 SOSs, and 0 indicators.
Presolve time = 0.30 sec. (170.27 ticks)
Probing fixed 365 vars, tightened 3986 bounds.
Probing time = 0.08 sec. (19.27 ticks)
Tried aggregator 2 times.
MIP Presolve eliminated 826 rows and 734 columns.
MIP Presolve modified 3075 coefficients.
Aggregator did 32 substitutions.
Reduced MIP has 24168 rows, 20551 columns, and 70095 nonzeros.
Reduced MIP has 8067 binaries, 0 generals, 0 SOSs, and 0 indicators.
Presolve time = 0.11 sec. (90.11 ticks)
Probing fixed 0 vars, tightened 228 bounds.
Probing time = 0.14 sec. (23.67 ticks)
Clique table members: 45028.
MIP emphasis: integer feasibility.
MIP search method: dynamic search.
Parallel mode: opportunistic, using up to 32 threads.
Root relaxation solution time = 0.42 sec. (554.03 ticks)

        Nodes                                         Cuts/
   Node  Left     Objective  IInf  Best Integer    Best Bound    ItCnt     Gap

      0     0      -23.4052    42                    -23.4052     4065         
      0     0      -23.4052     1                 Flowcuts: 1     4066         
Repair heuristic found nothing.
      0     2      -23.4052     1                    -23.4052     4066         
Elapsed time = 3.03 sec. (1553.10 ticks, tree = 0.02 MB, solutions = 1)
*     1     1      integral     0     -104.3954      -23.4052     4077   77.58%

Flow cuts applied:  1

Root node processing (before b&c):
  Real time             =    2.38 sec. (1511.68 ticks)
Parallel b&c, 32 threads:
  Real time             =    0.77 sec. (80.27 ticks)
  Sync time (average)   =    0.15 sec.
  Wait time (average)   =    0.00 sec.
                          ------------
Total (root+branch&cut) =    3.14 sec. (1591.96 ticks)

Solution pool: 1 solution saved.

MIP - Integer optimal solution:  Objective = -1.0439540949e+02
Solution time =    3.16 sec.  Iterations = 4088  Nodes = 5
Deterministic time = 1592.11 ticks  (504.47 ticks/sec)

CPLEX> Incumbent solution written to file 'C:\Users\llavin\Desktop\test826\logs\tmpvgkuypa3.cplex.sol'.
CPLEX> Exporting results... 
